%mem=1GB

#P b3lyp/6-31g
# SCF=(xqc)
# Opt
# Freq=(ANHARM,VIBROT)

comment: 

0 1
N       -2.4009029446     -0.1615484817      0.0000000000                 
N       -1.2833459522     -0.2356086149      0.0000000000                 
  Variables:


