# b2plypd3 6-31g* Opt

comment

0 1
O       -1.8666855256      0.2928100503      0.0173381045                 
H       -0.8773591602      0.2617963679     -0.0122409499                 
H       -2.1560508553     -0.3925062993     -0.6362769451                 

